Maximize
F - f1 - f2

Subject to
F - 3y21 - 3y32 - 9y58 - 6y66 - 3y75 - 9y93 - 3y118 - 0y134 - 9y150 - 3y171 - 3y177 - 0y197 - 0y210 - 6y226 - 9y243 - 6y90 - 3y51 - 12y264 - 3y64 - 6y85 - 9y135 - 12y149 - 3y46 - 6y189 - 3y56 - 12y22 = 0
f1 - 0.005628s21 - 0.005628s32 - 0.005628s58 - 0.005628s66 - 0.005628s75 - 0.005628s93 - 0.005628s118 - 0.005628s134 - 0.005628s150 - 0.005628s171 - 0.005628s177 - 0.005628s197 - 0.005628s210 - 0.005628s226 - 0.005628s243 - 0.005628s90 - 0.005628s51 - 0.005628s264 - 0.005628s64 - 0.005628s85 - 0.005628s135 - 0.005628s149 - 0.005628s46 - 0.005628s189 - 0.005628s56 - 0.005628s22  = 0
f2 - 1.28y21 - 2.34y32 - 0.97y58 - 2.18y66 - 1.78y75 - 1.94y93 - 2.61y118 - 1.51y134 - 1.95y150 - 1.48y171 - 2.10y177 - 1.98y197 - 2.56y210 - 2.59y226 - 2.35y243 - 1.02y90 - 0.83y51 - 0.72y264 - 0.68y64 - 1.81y85 - 2.04y135 - 0.58y149 - 0.53y46 - 0.68y189 - 0.69y56 - 0.22y22 = 0

x19x21x1 + x19x58x1 + x19x118x1 + x19x171x1 + x19x177x1 + x19x243x1 + x19x264x1 + x19x149x1 + x19x189x1 + x19x56x1 
<= 2
x250x21x1 + x250x58x1 + x250x118x1 + x250x171x1 + x250x177x1 + x250x243x1 + x250x264x1 + x250x149x1 + x250x189x1 + x250x56x1 
<= 1
x223x189x1 + x223x56x1 
<= 1
x210x149x1 + x210x189x1 + x210x56x1 
<= 1
x3x189x1 + x3x56x1 
<= 1
x173x264x1 + x173x149x1 + x173x189x1 + x173x56x1 
<= 1
x212x21x1 + x212x58x1 + x212x118x1 + x212x150x1 + x212x171x1 + x212x177x1 + x212x210x1 + x212x243x1 + x212x264x1 + x212x149x1 + x212x189x1 + x212x56x1 
<= 1
x108x21x1 + x108x58x1 + x108x118x1 + x108x150x1 + x108x171x1 + x108x177x1 + x108x243x1 + x108x264x1 + x108x149x1 + x108x189x1 + x108x56x1 
<= 1
x250x75x2 + x250x93x2 + x250x118x2 + x250x134x2 + x250x90x2 + x250x51x2 + x250x264x2 + x250x64x2 + x250x85x2 + x250x46x2 + x250x22x2 
<= 1
x223x85x2 + x223x46x2 + x223x22x2 
<= 1
x76x90x2 + x76x51x2 + x76x264x2 + x76x64x2 + x76x46x2 + x76x22x2 
<= 1
x134x90x2 + x134x51x2 + x134x264x2 + x134x64x2 + x134x46x2 + x134x22x2 
<= 1
x37x32x2 + x37x66x2 + x37x75x2 + x37x93x2 + x37x118x2 + x37x134x2 + x37x90x2 + x37x51x2 + x37x264x2 + x37x64x2 + x37x85x2 + x37x46x2 + x37x22x2 
<= 1
x257x75x2 + x257x118x2 + x257x134x2 + x257x90x2 + x257x51x2 + x257x264x2 + x257x64x2 + x257x85x2 + x257x46x2 + x257x22x2 
<= 2
x136x75x2 + x136x93x2 + x136x118x2 + x136x134x2 + x136x90x2 + x136x51x2 + x136x264x2 + x136x64x2 + x136x85x2 + x136x46x2 + x136x22x2 
<= 1
x62x75x2 + x62x93x2 + x62x118x2 + x62x134x2 + x62x90x2 + x62x51x2 + x62x264x2 + x62x64x2 + x62x85x2 + x62x46x2 + x62x22x2 
<= 1

x76x90x3 + x76x64x3 + x76x189x3 + x76x56x3 
<= 1
x210x85x3 + x210x135x3 + x210x189x3 + x210x56x3 
<= 1
x3x189x3 + x3x56x3 
<= 1
x197x21x3 + x197x93x3 + x197x134x3 + x197x171x3 + x197x177x3 + x197x197x3 + x197x243x3 + x197x90x3 + x197x64x3 + x197x85x3 + x197x135x3 + x197x189x3 + x197x56x3 
<= 2
x173x90x3 + x173x64x3 + x173x189x3 + x173x56x3 
<= 1
x134x90x3 + x134x64x3 + x134x135x3 + x134x189x3 + x134x56x3 
<= 1
x136x21x3 + x136x93x3 + x136x134x3 + x136x171x3 + x136x177x3 + x136x243x3 + x136x90x3 + x136x64x3 + x136x85x3 + x136x135x3 + x136x189x3 + x136x56x3 
<= 1
x62x21x3 + x62x93x3 + x62x134x3 + x62x171x3 + x62x177x3 + x62x243x3 + x62x90x3 + x62x64x3 + x62x85x3 + x62x135x3 + x62x189x3 + x62x56x3 
<= 1

x19x21x1 + x250x21x1 + x212x21x1 + x108x21x1 
- x21x0x1
- x21x264x1 - x21x149x1 - x21x189x1 - x21x56x1 
= 0

x197x21x3 + x136x21x3 + x62x21x3 
- x21x0x3
- x21x64x3 - x21x189x3 - x21x56x3 
= 0


x37x32x2 
- x32x0x2
- x32x22x2 
= 0


x19x58x1 + x250x58x1 + x212x58x1 + x108x58x1 
- x58x0x1
- x58x264x1 - x58x149x1 - x58x189x1 - x58x56x1 
= 0




x37x66x2 
- x66x0x2
- x66x22x2 
= 0



x250x75x2 + x37x75x2 + x257x75x2 + x136x75x2 + x62x75x2 
- x75x0x2
- x75x85x2 - x75x46x2 - x75x22x2 
= 0



x250x93x2 + x37x93x2 + x136x93x2 + x62x93x2 
- x93x0x2
- x93x85x2 - x93x46x2 - x93x22x2 
= 0
x197x93x3 + x136x93x3 + x62x93x3 
- x93x0x3
- x93x85x3 - x93x135x3 - x93x189x3 - x93x56x3 
= 0

x19x118x1 + x250x118x1 + x212x118x1 + x108x118x1 
- x118x0x1
- x118x56x1 
= 0
x250x118x2 + x37x118x2 + x257x118x2 + x136x118x2 + x62x118x2 
- x118x0x2
- x118x22x2 
= 0



x250x134x2 + x37x134x2 + x257x134x2 + x136x134x2 + x62x134x2 
- x134x0x2
- x134x22x2 
= 0
x197x134x3 + x136x134x3 + x62x134x3 
- x134x0x3
- x134x189x3 - x134x56x3 
= 0

x212x150x1 + x108x150x1 
- x150x0x1
- x150x189x1 - x150x56x1 
= 0



x19x171x1 + x250x171x1 + x212x171x1 + x108x171x1 
- x171x0x1
- x171x149x1 - x171x189x1 - x171x56x1 
= 0

x197x171x3 + x136x171x3 + x62x171x3 
- x171x0x3
- x171x85x3 - x171x135x3 - x171x189x3 - x171x56x3 
= 0

x19x177x1 + x250x177x1 + x212x177x1 + x108x177x1 
- x177x0x1
- x177x189x1 - x177x56x1 
= 0

x197x177x3 + x136x177x3 + x62x177x3 
- x177x0x3
- x177x85x3 - x177x135x3 - x177x189x3 - x177x56x3 
= 0



x197x197x3 
- x197x0x3
- x197x189x3 - x197x56x3 
= 0

x212x210x1 
- x210x0x1
- x210x189x1 - x210x56x1 
= 0


- x210x189x3 - x210x56x3 
= 0



- x226x22x2 
= 0


x19x243x1 + x250x243x1 + x212x243x1 + x108x243x1 
- x243x0x1
- x243x189x1 - x243x56x1 
= 0

x197x243x3 + x136x243x3 + x62x243x3 
- x243x0x3
- x243x85x3 - x243x135x3 - x243x189x3 - x243x56x3 
= 0


x250x90x2 + x76x90x2 + x134x90x2 + x37x90x2 + x257x90x2 + x136x90x2 + x62x90x2 
- x90x0x2
- x90x46x2 - x90x22x2 
= 0
x76x90x3 + x197x90x3 + x173x90x3 + x134x90x3 + x136x90x3 + x62x90x3 
- x90x0x3
- x90x189x3 - x90x56x3 
= 0


x250x51x2 + x76x51x2 + x134x51x2 + x37x51x2 + x257x51x2 + x136x51x2 + x62x51x2 
- x51x0x2
- x51x46x2 - x51x22x2 
= 0


x19x264x1 + x250x264x1 + x173x264x1 + x212x264x1 + x108x264x1 + x21x264x1 + x58x264x1 
- x264x0x1
- x264x149x1 - x264x189x1 - x264x56x1 
= 0
x250x264x2 + x76x264x2 + x134x264x2 + x37x264x2 + x257x264x2 + x136x264x2 + x62x264x2 
- x264x0x2
- x264x46x2 - x264x22x2 
= 0



x250x64x2 + x76x64x2 + x134x64x2 + x37x64x2 + x257x64x2 + x136x64x2 + x62x64x2 
- x64x0x2
- x64x46x2 - x64x22x2 
= 0
x76x64x3 + x197x64x3 + x173x64x3 + x134x64x3 + x136x64x3 + x62x64x3 + x21x64x3 
- x64x0x3
- x64x189x3 - x64x56x3 
= 0


x250x85x2 + x223x85x2 + x37x85x2 + x257x85x2 + x136x85x2 + x62x85x2 + x75x85x2 + x93x85x2 
- x85x0x2
- x85x46x2 - x85x22x2 
= 0
x210x85x3 + x197x85x3 + x136x85x3 + x62x85x3 + x93x85x3 + x171x85x3 + x177x85x3 + x243x85x3 
- x85x0x3
- x85x135x3 
= 0



x210x135x3 + x197x135x3 + x134x135x3 + x136x135x3 + x62x135x3 + x93x135x3 + x171x135x3 + x177x135x3 + x243x135x3 + x85x135x3 
- x135x0x3

= 0

x19x149x1 + x250x149x1 + x210x149x1 + x173x149x1 + x212x149x1 + x108x149x1 + x21x149x1 + x58x149x1 + x171x149x1 + x264x149x1 
- x149x0x1

= 0




x250x46x2 + x223x46x2 + x76x46x2 + x134x46x2 + x37x46x2 + x257x46x2 + x136x46x2 + x62x46x2 + x75x46x2 + x93x46x2 + x90x46x2 + x51x46x2 + x264x46x2 + x64x46x2 + x85x46x2 
- x46x0x2
- x46x22x2 
= 0


x19x189x1 + x250x189x1 + x223x189x1 + x210x189x1 + x3x189x1 + x173x189x1 + x212x189x1 + x108x189x1 + x21x189x1 + x58x189x1 + x150x189x1 + x171x189x1 + x177x189x1 + x210x189x1 + x243x189x1 + x264x189x1 
- x189x0x1
- x189x56x1 
= 0

x76x189x3 + x210x189x3 + x3x189x3 + x197x189x3 + x173x189x3 + x134x189x3 + x136x189x3 + x62x189x3 + x21x189x3 + x93x189x3 + x134x189x3 + x171x189x3 + x177x189x3 + x197x189x3 + x210x189x3 + x243x189x3 + x90x189x3 + x64x189x3 
- x189x0x3
- x189x56x3 
= 0

x19x56x1 + x250x56x1 + x223x56x1 + x210x56x1 + x3x56x1 + x173x56x1 + x212x56x1 + x108x56x1 + x21x56x1 + x58x56x1 + x118x56x1 + x150x56x1 + x171x56x1 + x177x56x1 + x210x56x1 + x243x56x1 + x264x56x1 + x189x56x1 
- x56x0x1

= 0

x76x56x3 + x210x56x3 + x3x56x3 + x197x56x3 + x173x56x3 + x134x56x3 + x136x56x3 + x62x56x3 + x21x56x3 + x93x56x3 + x134x56x3 + x171x56x3 + x177x56x3 + x197x56x3 + x210x56x3 + x243x56x3 + x90x56x3 + x64x56x3 + x189x56x3 
- x56x0x3

= 0


x250x22x2 + x223x22x2 + x76x22x2 + x134x22x2 + x37x22x2 + x257x22x2 + x136x22x2 + x62x22x2 + x32x22x2 + x66x22x2 + x75x22x2 + x93x22x2 + x118x22x2 + x134x22x2 + x226x22x2 + x90x22x2 + x51x22x2 + x264x22x2 + x64x22x2 + x85x22x2 + x46x22x2 
- x22x0x2

= 0


1y21 - x19x21x1 - x250x21x1 - x212x21x1 - x108x21x1 = 0
1y21 - x197x21x3 - x136x21x3 - x62x21x3 = 0
2y32 - x37x32x2 = 0
2y58 - x19x58x1 - x250x58x1 - x212x58x1 - x108x58x1 = 0
2y66 - x37x66x2 = 0
2y75 - x250x75x2 - x37x75x2 - x257x75x2 - x136x75x2 - x62x75x2 = 0
1y93 - x250x93x2 - x37x93x2 - x136x93x2 - x62x93x2 = 0
1y93 - x197x93x3 - x136x93x3 - x62x93x3 = 0
1y118 - x19x118x1 - x250x118x1 - x212x118x1 - x108x118x1 = 0
1y118 - x250x118x2 - x37x118x2 - x257x118x2 - x136x118x2 - x62x118x2 = 0
1y134 - x250x134x2 - x37x134x2 - x257x134x2 - x136x134x2 - x62x134x2 = 0
1y134 - x197x134x3 - x136x134x3 - x62x134x3 = 0
2y150 - x212x150x1 - x108x150x1 = 0
1y171 - x19x171x1 - x250x171x1 - x212x171x1 - x108x171x1 = 0
1y171 - x197x171x3 - x136x171x3 - x62x171x3 = 0
1y177 - x19x177x1 - x250x177x1 - x212x177x1 - x108x177x1 = 0
1y177 - x197x177x3 - x136x177x3 - x62x177x3 = 0
2y197 - x197x197x3 = 0
1y210 - x212x210x1 = 0
1y210 = 0
2y226 = 0
1y243 - x19x243x1 - x250x243x1 - x212x243x1 - x108x243x1 = 0
1y243 - x197x243x3 - x136x243x3 - x62x243x3 = 0
1y90 - x250x90x2 - x76x90x2 - x134x90x2 - x37x90x2 - x257x90x2 - x136x90x2 - x62x90x2 = 0
1y90 - x76x90x3 - x197x90x3 - x173x90x3 - x134x90x3 - x136x90x3 - x62x90x3 = 0
2y51 - x250x51x2 - x76x51x2 - x134x51x2 - x37x51x2 - x257x51x2 - x136x51x2 - x62x51x2 = 0
1y264 - x19x264x1 - x250x264x1 - x173x264x1 - x212x264x1 - x108x264x1 - x21x264x1 - x58x264x1 = 0
1y264 - x250x264x2 - x76x264x2 - x134x264x2 - x37x264x2 - x257x264x2 - x136x264x2 - x62x264x2 = 0
1y64 - x250x64x2 - x76x64x2 - x134x64x2 - x37x64x2 - x257x64x2 - x136x64x2 - x62x64x2 = 0
1y64 - x76x64x3 - x197x64x3 - x173x64x3 - x134x64x3 - x136x64x3 - x62x64x3 - x21x64x3 = 0
1y85 - x250x85x2 - x223x85x2 - x37x85x2 - x257x85x2 - x136x85x2 - x62x85x2 - x75x85x2 - x93x85x2 = 0
1y85 - x210x85x3 - x197x85x3 - x136x85x3 - x62x85x3 - x93x85x3 - x171x85x3 - x177x85x3 - x243x85x3 = 0
2y135 - x210x135x3 - x197x135x3 - x134x135x3 - x136x135x3 - x62x135x3 - x93x135x3 - x171x135x3 - x177x135x3 - x243x135x3 - x85x135x3 = 0
2y149 - x19x149x1 - x250x149x1 - x210x149x1 - x173x149x1 - x212x149x1 - x108x149x1 - x21x149x1 - x58x149x1 - x171x149x1 - x264x149x1 = 0
2y46 - x250x46x2 - x223x46x2 - x76x46x2 - x134x46x2 - x37x46x2 - x257x46x2 - x136x46x2 - x62x46x2 - x75x46x2 - x93x46x2 - x90x46x2 - x51x46x2 - x264x46x2 - x64x46x2 - x85x46x2 = 0
1y189 - x19x189x1 - x250x189x1 - x223x189x1 - x210x189x1 - x3x189x1 - x173x189x1 - x212x189x1 - x108x189x1 - x21x189x1 - x58x189x1 - x150x189x1 - x171x189x1 - x177x189x1 - x210x189x1 - x243x189x1 - x264x189x1 = 0
1y189 - x76x189x3 - x210x189x3 - x3x189x3 - x197x189x3 - x173x189x3 - x134x189x3 - x136x189x3 - x62x189x3 - x21x189x3 - x93x189x3 - x134x189x3 - x171x189x3 - x177x189x3 - x197x189x3 - x210x189x3 - x243x189x3 - x90x189x3 - x64x189x3 = 0
1y56 - x19x56x1 - x250x56x1 - x223x56x1 - x210x56x1 - x3x56x1 - x173x56x1 - x212x56x1 - x108x56x1 - x21x56x1 - x58x56x1 - x118x56x1 - x150x56x1 - x171x56x1 - x177x56x1 - x210x56x1 - x243x56x1 - x264x56x1 - x189x56x1 = 0
1y56 - x76x56x3 - x210x56x3 - x3x56x3 - x197x56x3 - x173x56x3 - x134x56x3 - x136x56x3 - x62x56x3 - x21x56x3 - x93x56x3 - x134x56x3 - x171x56x3 - x177x56x3 - x197x56x3 - x210x56x3 - x243x56x3 - x90x56x3 - x64x56x3 - x189x56x3 = 0
2y22 - x250x22x2 - x223x22x2 - x76x22x2 - x134x22x2 - x37x22x2 - x257x22x2 - x136x22x2 - x62x22x2 - x32x22x2 - x66x22x2 - x75x22x2 - x93x22x2 - x118x22x2 - x134x22x2 - x226x22x2 - x90x22x2 - x51x22x2 - x264x22x2 - x64x22x2 - x85x22x2 - x46x22x2 = 0

s19 - s21 + 6.704437z19z21z1 <= 5.11
s19 - s58 + 6.757932z19z58z1 <= 5.11
s19 - s118 + 6.549764z19z118z1 <= 5.11
s19 - s171 + 6.711675z19z171z1 <= 5.11
s19 - s177 + 6.616370z19z177z1 <= 5.11
s19 - s243 + 6.596387z19z243z1 <= 5.11
s19 - s264 + 6.790028z19z264z1 <= 5.11
s19 - s149 + 6.820865z19z149z1 <= 5.11
s19 - s189 + 6.744604z19z189z1 <= 5.11
s19 - s56 + 6.741940z19z56z1 <= 5.11
s250 - s21 + 6.546288z250z21z1 <= 5.20
s250 - s58 + 6.592361z250z58z1 <= 5.20
s250 - s75 + 6.575632z250z75z2 <= 5.20
s250 - s93 + 6.523026z250z93z2 <= 5.20
s250 - s118 + 6.549712z250z118z1 <= 5.20
s250 - s118 + 6.549712z250z118z2 <= 5.20
s250 - s134 + 6.378557z250z134z2 <= 5.20
s250 - s171 + 6.604334z250z171z1 <= 5.20
s250 - s177 + 6.556212z250z177z1 <= 5.20
s250 - s243 + 6.574867z250z243z1 <= 5.20
s250 - s90 + 6.465446z250z90z2 <= 5.20
s250 - s51 + 6.521863z250z51z2 <= 5.20
s250 - s264 + 6.608681z250z264z1 <= 5.20
s250 - s264 + 6.608681z250z264z2 <= 5.20
s250 - s64 + 6.588743z250z64z2 <= 5.20
s250 - s85 + 6.640670z250z85z2 <= 5.20
s250 - s149 + 6.642521z250z149z1 <= 5.20
s250 - s46 + 6.710090z250z46z2 <= 5.20
s250 - s189 + 6.491086z250z189z1 <= 5.20
s250 - s56 + 6.484813z250z56z1 <= 5.20
s250 - s22 + 6.697138z250z22z2 <= 5.20
s223 - s85 + 7.084129z223z85z2 <= 5.62
s223 - s46 + 7.256802z223z46z2 <= 5.62
s223 - s189 + 7.161521z223z189z1 <= 5.62
s223 - s56 + 7.160131z223z56z1 <= 5.62
s223 - s22 + 7.279647z223z22z2 <= 5.62
s76 - s90 + 6.912420z76z90z2 <= 5.76
s76 - s90 + 6.912420z76z90z3 <= 5.76
s76 - s51 + 6.971650z76z51z2 <= 5.76
s76 - s264 + 7.069712z76z264z2 <= 5.76
s76 - s64 + 7.043742z76z64z2 <= 5.76
s76 - s64 + 7.043742z76z64z3 <= 5.76
s76 - s46 + 7.175115z76z46z2 <= 5.76
s76 - s189 + 6.919219z76z189z3 <= 5.76
s76 - s56 + 6.910965z76z56z3 <= 5.76
s76 - s22 + 7.146527z76z22z2 <= 5.76
s210 - s85 + 7.100188z210z85z3 <= 5.84
s210 - s135 + 7.095439z210z135z3 <= 5.84
s210 - s149 + 7.164144z210z149z1 <= 5.84
s210 - s189 + 7.095439z210z189z1 <= 5.84
s210 - s189 + 7.095439z210z189z3 <= 5.84
s210 - s56 + 7.095097z210z56z1 <= 5.84
s210 - s56 + 7.095097z210z56z3 <= 5.84
s3 - s189 + 7.150342z3z189z1 <= 5.96
s3 - s189 + 7.150342z3z189z3 <= 5.96
s3 - s56 + 7.141070z3z56z1 <= 5.96
s3 - s56 + 7.141070z3z56z3 <= 5.96
s197 - s21 + 6.506842z197z21z3 <= 5.38
s197 - s93 + 6.470676z197z93z3 <= 5.38
s197 - s134 + 6.506842z197z134z3 <= 5.38
s197 - s171 + 6.550359z197z171z3 <= 5.38
s197 - s177 + 6.511318z197z177z3 <= 5.38
s197 - s197 + 6.380000z197z197z3 <= 5.38
s197 - s243 + 6.543436z197z243z3 <= 5.38
s197 - s90 + 6.524222z197z90z3 <= 5.38
s197 - s64 + 6.580555z197z64z3 <= 5.38
s197 - s85 + 6.588274z197z85z3 <= 5.38
s197 - s135 + 6.594994z197z135z3 <= 5.38
s197 - s189 + 6.572296z197z189z3 <= 5.38
s197 - s56 + 6.574365z197z56z3 <= 5.38
s173 - s90 + 6.934046z173z90z3 <= 5.83
s173 - s264 + 7.038213z173z264z1 <= 5.83
s173 - s64 + 7.008430z173z64z3 <= 5.83
s173 - s149 + 7.059581z173z149z1 <= 5.83
s173 - s189 + 6.887807z173z189z1 <= 5.83
s173 - s189 + 6.887807z173z189z3 <= 5.83
s173 - s56 + 6.883303z173z56z1 <= 5.83
s173 - s56 + 6.883303z173z56z3 <= 5.83
s134 - s90 + 6.926604z134z90z2 <= 5.84
s134 - s90 + 6.926604z134z90z3 <= 5.84
s134 - s51 + 6.983595z134z51z2 <= 5.84
s134 - s264 + 7.075289z134z264z2 <= 5.84
s134 - s64 + 7.052702z134z64z2 <= 5.84
s134 - s64 + 7.052702z134z64z3 <= 5.84
s134 - s135 + 7.172881z134z135z3 <= 5.84
s134 - s46 + 7.179681z134z46z2 <= 5.84
s134 - s189 + 6.957815z134z189z3 <= 5.84
s134 - s56 + 6.953601z134z56z3 <= 5.84
s134 - s22 + 7.160236z134z22z2 <= 5.84
s212 - s21 + 5.968189z212z21z1 <= 4.45
s212 - s58 + 6.000211z212z58z1 <= 4.45
s212 - s118 + 6.029147z212z118z1 <= 4.45
s212 - s150 + 5.883287z212z150z1 <= 4.45
s212 - s171 + 6.042687z212z171z1 <= 4.45
s212 - s177 + 6.019967z212z177z1 <= 4.45
s212 - s210 + 5.866526z212z210z1 <= 4.45
s212 - s243 + 6.046970z212z243z1 <= 4.45
s212 - s264 + 6.002157z212z264z1 <= 4.45
s212 - s149 + 6.032188z212z149z1 <= 4.45
s212 - s189 + 5.841630z212z189z1 <= 4.45
s212 - s56 + 5.832363z212z56z1 <= 4.45
s37 - s32 + 6.189137z37z32z2 <= 4.80
s37 - s66 + 6.159535z37z66z2 <= 4.80
s37 - s75 + 6.345566z37z75z2 <= 4.80
s37 - s93 + 6.299869z37z93z2 <= 4.80
s37 - s118 + 6.355797z37z118z2 <= 4.80
s37 - s134 + 6.096675z37z134z2 <= 4.80
s37 - s90 + 6.157248z37z90z2 <= 4.80
s37 - s51 + 6.214245z37z51z2 <= 4.80
s37 - s264 + 6.313352z37z264z2 <= 4.80
s37 - s64 + 6.285647z37z64z2 <= 4.80
s37 - s85 + 6.414195z37z85z2 <= 4.80
s37 - s46 + 6.417976z37z46z2 <= 4.80
s37 - s22 + 6.381770z37z22z2 <= 4.80
s108 - s21 + 6.265190z108z21z1 <= 4.74
s108 - s58 + 6.288198z108z58z1 <= 4.74
s108 - s118 + 6.361011z108z118z1 <= 4.74
s108 - s150 + 6.202348z108z150z1 <= 4.74
s108 - s171 + 6.344955z108z171z1 <= 4.74
s108 - s177 + 6.339210z108z177z1 <= 4.74
s108 - s243 + 6.371734z108z243z1 <= 4.74
s108 - s264 + 6.282960z108z264z1 <= 4.74
s108 - s149 + 6.309531z108z149z1 <= 4.74
s108 - s189 + 6.116459z108z189z1 <= 4.74
s108 - s56 + 6.107068z108z56z1 <= 4.74
s257 - s75 + 6.638748z257z75z2 <= 4.97
s257 - s118 + 6.521554z257z118z2 <= 4.97
s257 - s134 + 6.603355z257z134z2 <= 4.97
s257 - s90 + 6.678146z257z90z2 <= 4.97
s257 - s51 + 6.717134z257z51z2 <= 4.97
s257 - s264 + 6.766837z257z264z2 <= 4.97
s257 - s64 + 6.761141z257z64z2 <= 4.97
s257 - s85 + 6.668187z257z85z2 <= 4.97
s257 - s46 + 6.839381z257z46z2 <= 4.97
s257 - s22 + 6.859027z257z22z2 <= 4.97
s136 - s21 + 6.478994z136z21z3 <= 4.86
s136 - s75 + 6.559034z136z75z2 <= 4.86
s136 - s93 + 6.521491z136z93z2 <= 4.86
s136 - s93 + 6.521491z136z93z3 <= 4.86
s136 - s118 + 6.595957z136z118z2 <= 4.86
s136 - s134 + 6.313354z136z134z2 <= 4.86
s136 - s134 + 6.313354z136z134z3 <= 4.86
s136 - s171 + 6.560921z136z171z3 <= 4.86
s136 - s177 + 6.567056z136z177z3 <= 4.86
s136 - s243 + 6.602524z136z243z3 <= 4.86
s136 - s90 + 6.344020z136z90z2 <= 4.86
s136 - s90 + 6.344020z136z90z3 <= 4.86
s136 - s51 + 6.389707z136z51z2 <= 4.86
s136 - s264 + 6.482638z136z264z2 <= 4.86
s136 - s64 + 6.452853z136z64z2 <= 4.86
s136 - s64 + 6.452853z136z64z3 <= 4.86
s136 - s85 + 6.626098z136z85z2 <= 4.86
s136 - s85 + 6.626098z136z85z3 <= 4.86
s136 - s135 + 6.644330z136z135z3 <= 4.86
s136 - s46 + 6.578701z136z46z2 <= 4.86
s136 - s189 + 6.318087z136z189z3 <= 4.86
s136 - s56 + 6.309173z136z56z3 <= 4.86
s136 - s22 + 6.527588z136z22z2 <= 4.86
s62 - s21 + 6.579173z62z21z3 <= 4.98
s62 - s75 + 6.542017z62z75z2 <= 4.98
s62 - s93 + 6.497110z62z93z2 <= 4.98
s62 - s93 + 6.497110z62z93z3 <= 4.98
s62 - s118 + 6.430114z62z118z2 <= 4.98
s62 - s134 + 6.497756z62z134z2 <= 4.98
s62 - s134 + 6.497756z62z134z3 <= 4.98
s62 - s171 + 6.589242z62z171z3 <= 4.98
s62 - s177 + 6.494993z62z177z3 <= 4.98
s62 - s243 + 6.476612z62z243z3 <= 4.98
s62 - s90 + 6.572591z62z90z2 <= 4.98
s62 - s90 + 6.572591z62z90z3 <= 4.98
s62 - s51 + 6.612180z62z51z2 <= 4.98
s62 - s264 + 6.664269z62z264z2 <= 4.98
s62 - s64 + 6.657596z62z64z2 <= 4.98
s62 - s64 + 6.657596z62z64z3 <= 4.98
s62 - s85 + 6.576340z62z85z2 <= 4.98
s62 - s85 + 6.576340z62z85z3 <= 4.98
s62 - s135 + 6.552235z62z135z3 <= 4.98
s62 - s46 + 6.739962z62z46z2 <= 4.98
s62 - s189 + 6.613729z62z189z3 <= 4.98
s62 - s56 + 6.610768z62z56z3 <= 4.98
s62 - s22 + 6.756973z62z22z2 <= 4.98
s21 - s264 + 7.876667z21z264z1 <= 6.79
s21 - s64 + 7.879691z21z64z3 <= 6.79
s21 - s149 + 7.906428z21z149z1 <= 6.79
s21 - s189 + 7.957862z21z189z1 <= 6.79
s21 - s189 + 7.957862z21z189z3 <= 6.79
s21 - s56 + 7.965373z21z56z1 <= 6.79
s21 - s56 + 7.965373z21z56z3 <= 6.79
s32 - s22 + 7.551540z32z22z2 <= 6.19
s58 - s264 + 8.007712z58z264z1 <= 6.97
s58 - s149 + 8.033245z58z149z1 <= 6.97
s58 - s189 + 8.146005z58z189z1 <= 6.97
s58 - s56 + 8.154872z58z56z1 <= 6.97
s66 - s22 + 7.623333z66z22z2 <= 6.27
s75 - s85 + 7.858637z75z85z2 <= 6.79
s75 - s46 + 7.994505z75z46z2 <= 6.79
s75 - s22 + 8.030370z75z22z2 <= 6.79
s93 - s85 + 7.697946z93z85z2 <= 6.58
s93 - s85 + 7.697946z93z85z3 <= 6.58
s93 - s135 + 7.705256z93z135z3 <= 6.58
s93 - s46 + 7.823310z93z46z2 <= 6.58
s93 - s189 + 7.819351z93z189z3 <= 6.58
s93 - s56 + 7.824495z93z56z3 <= 6.58
s93 - s22 + 7.848742z93z22z2 <= 6.58
s118 - s56 + 8.005768z118z56z1 <= 6.66
s118 - s22 + 8.028178z118z22z2 <= 6.66
s134 - s189 + 7.908134z134z189z3 <= 6.79
s134 - s56 + 7.903920z134z56z3 <= 6.79
s134 - s22 + 8.110555z134z22z2 <= 6.79
s150 - s189 + 7.576786z150z189z1 <= 6.39
s150 - s56 + 7.578680z150z56z1 <= 6.39
s171 - s85 + 7.984535z171z85z3 <= 6.91
s171 - s135 + 8.017703z171z135z3 <= 6.91
s171 - s149 + 8.051735z171z149z1 <= 6.91
s171 - s189 + 8.159889z171z189z1 <= 6.91
s171 - s189 + 8.159889z171z189z3 <= 6.91
s171 - s56 + 8.167596z171z56z1 <= 6.91
s171 - s56 + 8.167596z171z56z3 <= 6.91
s177 - s85 + 7.789443z177z85z3 <= 6.70
s177 - s135 + 7.785375z177z135z3 <= 6.70
s177 - s189 + 7.985034z177z189z1 <= 6.70
s177 - s189 + 7.985034z177z189z3 <= 6.70
s177 - s56 + 7.990440z177z56z1 <= 6.70
s177 - s56 + 7.990440z177z56z3 <= 6.70
s197 - s189 + 7.572296z197z189z3 <= 6.38
s197 - s56 + 7.574365z197z56z3 <= 6.38
s210 - s189 + 7.349658z210z189z1 <= 6.09
s210 - s189 + 7.349658z210z189z3 <= 6.09
s210 - s56 + 7.349316z210z56z1 <= 6.09
s210 - s56 + 7.349316z210z56z3 <= 6.09
s226 - s22 + 7.521809z226z22z2 <= 6.14
s243 - s85 + 7.910000z243z85z3 <= 6.81
s243 - s135 + 7.888031z243z135z3 <= 6.81
s243 - s189 + 8.138295z243z189z1 <= 6.81
s243 - s189 + 8.138295z243z189z3 <= 6.81
s243 - s56 + 8.143400z243z56z1 <= 6.81
s243 - s56 + 8.143400z243z56z3 <= 6.81
s90 - s46 + 8.282721z90z46z2 <= 7.02
s90 - s189 + 8.068074z90z189z3 <= 7.02
s90 - s56 + 8.070772z90z56z3 <= 7.02
s90 - s22 + 8.256455z90z22z2 <= 7.02
s51 - s46 + 8.264070z51z46z2 <= 7.06
s51 - s22 + 8.237138z51z22z2 <= 7.06
s264 - s149 + 8.123994z264z149z1 <= 7.09
s264 - s46 + 8.195410z264z46z2 <= 7.09
s264 - s189 + 8.256667z264z189z1 <= 7.09
s264 - s56 + 8.266006z264z56z1 <= 7.09
s264 - s22 + 8.183571z264z22z2 <= 7.09
s64 - s46 + 8.242330z64z46z2 <= 7.11
s64 - s189 + 8.247437z64z189z3 <= 7.11
s64 - s56 + 8.256819z64z56z3 <= 7.11
s64 - s22 + 8.218526z64z22z2 <= 7.11
s85 - s135 + 8.157712z85z135z3 <= 7.12
s85 - s46 + 8.324070z85z46z2 <= 7.12
s85 - s22 + 8.375256z85z22z2 <= 7.12
s46 - s22 + 8.396999z46z22z2 <= 7.33
s189 - s56 + 8.349428z189z56z1 <= 7.34
s189 - s56 + 8.349428z189z56z3 <= 7.34

x19x21x1 - 1z19z21z1 <= 0
x19x58x1 - 2z19z58z1 <= 0
x19x118x1 - 1z19z118z1 <= 0
x19x171x1 - 1z19z171z1 <= 0
x19x177x1 - 1z19z177z1 <= 0
x19x243x1 - 1z19z243z1 <= 0
x19x264x1 - 1z19z264z1 <= 0
x19x149x1 - 2z19z149z1 <= 0
x19x189x1 - 1z19z189z1 <= 0
x19x56x1 - 1z19z56z1 <= 0
x250x21x1 - 1z250z21z1 <= 0
x250x58x1 - 2z250z58z1 <= 0
x250x75x2 - 2z250z75z2 <= 0
x250x93x2 - 1z250z93z2 <= 0
x250x118x1 - 1z250z118z1 <= 0
x250x118x2 - 1z250z118z2 <= 0
x250x134x2 - 1z250z134z2 <= 0
x250x171x1 - 1z250z171z1 <= 0
x250x177x1 - 1z250z177z1 <= 0
x250x243x1 - 1z250z243z1 <= 0
x250x90x2 - 1z250z90z2 <= 0
x250x51x2 - 2z250z51z2 <= 0
x250x264x1 - 1z250z264z1 <= 0
x250x264x2 - 1z250z264z2 <= 0
x250x64x2 - 1z250z64z2 <= 0
x250x85x2 - 1z250z85z2 <= 0
x250x149x1 - 2z250z149z1 <= 0
x250x46x2 - 2z250z46z2 <= 0
x250x189x1 - 1z250z189z1 <= 0
x250x56x1 - 1z250z56z1 <= 0
x250x22x2 - 2z250z22z2 <= 0
x223x85x2 - 1z223z85z2 <= 0
x223x46x2 - 2z223z46z2 <= 0
x223x189x1 - 1z223z189z1 <= 0
x223x56x1 - 1z223z56z1 <= 0
x223x22x2 - 2z223z22z2 <= 0
x76x90x2 - 1z76z90z2 <= 0
x76x90x3 - 1z76z90z3 <= 0
x76x51x2 - 2z76z51z2 <= 0
x76x264x2 - 1z76z264z2 <= 0
x76x64x2 - 1z76z64z2 <= 0
x76x64x3 - 1z76z64z3 <= 0
x76x46x2 - 2z76z46z2 <= 0
x76x189x3 - 1z76z189z3 <= 0
x76x56x3 - 1z76z56z3 <= 0
x76x22x2 - 2z76z22z2 <= 0
x210x85x3 - 1z210z85z3 <= 0
x210x135x3 - 2z210z135z3 <= 0
x210x149x1 - 2z210z149z1 <= 0
x210x189x1 - 1z210z189z1 <= 0
x210x189x3 - 1z210z189z3 <= 0
x210x56x1 - 1z210z56z1 <= 0
x210x56x3 - 1z210z56z3 <= 0
x3x189x1 - 1z3z189z1 <= 0
x3x189x3 - 1z3z189z3 <= 0
x3x56x1 - 1z3z56z1 <= 0
x3x56x3 - 1z3z56z3 <= 0
x197x21x3 - 1z197z21z3 <= 0
x197x93x3 - 1z197z93z3 <= 0
x197x134x3 - 1z197z134z3 <= 0
x197x171x3 - 1z197z171z3 <= 0
x197x177x3 - 1z197z177z3 <= 0
x197x197x3 - 2z197z197z3 <= 0
x197x243x3 - 1z197z243z3 <= 0
x197x90x3 - 1z197z90z3 <= 0
x197x64x3 - 1z197z64z3 <= 0
x197x85x3 - 1z197z85z3 <= 0
x197x135x3 - 2z197z135z3 <= 0
x197x189x3 - 1z197z189z3 <= 0
x197x56x3 - 1z197z56z3 <= 0
x173x90x3 - 1z173z90z3 <= 0
x173x264x1 - 1z173z264z1 <= 0
x173x64x3 - 1z173z64z3 <= 0
x173x149x1 - 2z173z149z1 <= 0
x173x189x1 - 1z173z189z1 <= 0
x173x189x3 - 1z173z189z3 <= 0
x173x56x1 - 1z173z56z1 <= 0
x173x56x3 - 1z173z56z3 <= 0
x134x90x2 - 1z134z90z2 <= 0
x134x90x3 - 1z134z90z3 <= 0
x134x51x2 - 2z134z51z2 <= 0
x134x264x2 - 1z134z264z2 <= 0
x134x64x2 - 1z134z64z2 <= 0
x134x64x3 - 1z134z64z3 <= 0
x134x135x3 - 2z134z135z3 <= 0
x134x46x2 - 2z134z46z2 <= 0
x134x189x3 - 1z134z189z3 <= 0
x134x56x3 - 1z134z56z3 <= 0
x134x22x2 - 2z134z22z2 <= 0
x212x21x1 - 1z212z21z1 <= 0
x212x58x1 - 2z212z58z1 <= 0
x212x118x1 - 1z212z118z1 <= 0
x212x150x1 - 2z212z150z1 <= 0
x212x171x1 - 1z212z171z1 <= 0
x212x177x1 - 1z212z177z1 <= 0
x212x210x1 - 1z212z210z1 <= 0
x212x243x1 - 1z212z243z1 <= 0
x212x264x1 - 1z212z264z1 <= 0
x212x149x1 - 2z212z149z1 <= 0
x212x189x1 - 1z212z189z1 <= 0
x212x56x1 - 1z212z56z1 <= 0
x37x32x2 - 2z37z32z2 <= 0
x37x66x2 - 2z37z66z2 <= 0
x37x75x2 - 2z37z75z2 <= 0
x37x93x2 - 1z37z93z2 <= 0
x37x118x2 - 1z37z118z2 <= 0
x37x134x2 - 1z37z134z2 <= 0
x37x90x2 - 1z37z90z2 <= 0
x37x51x2 - 2z37z51z2 <= 0
x37x264x2 - 1z37z264z2 <= 0
x37x64x2 - 1z37z64z2 <= 0
x37x85x2 - 1z37z85z2 <= 0
x37x46x2 - 2z37z46z2 <= 0
x37x22x2 - 2z37z22z2 <= 0
x108x21x1 - 1z108z21z1 <= 0
x108x58x1 - 2z108z58z1 <= 0
x108x118x1 - 1z108z118z1 <= 0
x108x150x1 - 2z108z150z1 <= 0
x108x171x1 - 1z108z171z1 <= 0
x108x177x1 - 1z108z177z1 <= 0
x108x243x1 - 1z108z243z1 <= 0
x108x264x1 - 1z108z264z1 <= 0
x108x149x1 - 2z108z149z1 <= 0
x108x189x1 - 1z108z189z1 <= 0
x108x56x1 - 1z108z56z1 <= 0
x257x75x2 - 2z257z75z2 <= 0
x257x118x2 - 1z257z118z2 <= 0
x257x134x2 - 1z257z134z2 <= 0
x257x90x2 - 1z257z90z2 <= 0
x257x51x2 - 2z257z51z2 <= 0
x257x264x2 - 1z257z264z2 <= 0
x257x64x2 - 1z257z64z2 <= 0
x257x85x2 - 1z257z85z2 <= 0
x257x46x2 - 2z257z46z2 <= 0
x257x22x2 - 2z257z22z2 <= 0
x136x21x3 - 1z136z21z3 <= 0
x136x75x2 - 2z136z75z2 <= 0
x136x93x2 - 1z136z93z2 <= 0
x136x93x3 - 1z136z93z3 <= 0
x136x118x2 - 1z136z118z2 <= 0
x136x134x2 - 1z136z134z2 <= 0
x136x134x3 - 1z136z134z3 <= 0
x136x171x3 - 1z136z171z3 <= 0
x136x177x3 - 1z136z177z3 <= 0
x136x243x3 - 1z136z243z3 <= 0
x136x90x2 - 1z136z90z2 <= 0
x136x90x3 - 1z136z90z3 <= 0
x136x51x2 - 2z136z51z2 <= 0
x136x264x2 - 1z136z264z2 <= 0
x136x64x2 - 1z136z64z2 <= 0
x136x64x3 - 1z136z64z3 <= 0
x136x85x2 - 1z136z85z2 <= 0
x136x85x3 - 1z136z85z3 <= 0
x136x135x3 - 2z136z135z3 <= 0
x136x46x2 - 2z136z46z2 <= 0
x136x189x3 - 1z136z189z3 <= 0
x136x56x3 - 1z136z56z3 <= 0
x136x22x2 - 2z136z22z2 <= 0
x62x21x3 - 1z62z21z3 <= 0
x62x75x2 - 2z62z75z2 <= 0
x62x93x2 - 1z62z93z2 <= 0
x62x93x3 - 1z62z93z3 <= 0
x62x118x2 - 1z62z118z2 <= 0
x62x134x2 - 1z62z134z2 <= 0
x62x134x3 - 1z62z134z3 <= 0
x62x171x3 - 1z62z171z3 <= 0
x62x177x3 - 1z62z177z3 <= 0
x62x243x3 - 1z62z243z3 <= 0
x62x90x2 - 1z62z90z2 <= 0
x62x90x3 - 1z62z90z3 <= 0
x62x51x2 - 2z62z51z2 <= 0
x62x264x2 - 1z62z264z2 <= 0
x62x64x2 - 1z62z64z2 <= 0
x62x64x3 - 1z62z64z3 <= 0
x62x85x2 - 1z62z85z2 <= 0
x62x85x3 - 1z62z85z3 <= 0
x62x135x3 - 2z62z135z3 <= 0
x62x46x2 - 2z62z46z2 <= 0
x62x189x3 - 1z62z189z3 <= 0
x62x56x3 - 1z62z56z3 <= 0
x62x22x2 - 2z62z22z2 <= 0
x21x264x1 - 1z21z264z1 <= 0
x21x64x3 - 1z21z64z3 <= 0
x21x149x1 - 2z21z149z1 <= 0
x21x189x1 - 1z21z189z1 <= 0
x21x189x3 - 1z21z189z3 <= 0
x21x56x1 - 1z21z56z1 <= 0
x21x56x3 - 1z21z56z3 <= 0
x21x0x1 <= 1
x21x0x3 <= 1
x32x22x2 - 2z32z22z2 <= 0
x32x0x2 <= 2
x58x264x1 - 1z58z264z1 <= 0
x58x149x1 - 2z58z149z1 <= 0
x58x189x1 - 1z58z189z1 <= 0
x58x56x1 - 1z58z56z1 <= 0
x58x0x1 <= 2
x66x22x2 - 2z66z22z2 <= 0
x66x0x2 <= 2
x75x85x2 - 1z75z85z2 <= 0
x75x46x2 - 2z75z46z2 <= 0
x75x22x2 - 2z75z22z2 <= 0
x75x0x2 <= 2
x93x85x2 - 1z93z85z2 <= 0
x93x85x3 - 1z93z85z3 <= 0
x93x135x3 - 2z93z135z3 <= 0
x93x46x2 - 2z93z46z2 <= 0
x93x189x3 - 1z93z189z3 <= 0
x93x56x3 - 1z93z56z3 <= 0
x93x22x2 - 2z93z22z2 <= 0
x93x0x2 <= 1
x93x0x3 <= 1
x118x56x1 - 1z118z56z1 <= 0
x118x22x2 - 2z118z22z2 <= 0
x118x0x1 <= 1
x118x0x2 <= 1
x134x189x3 - 1z134z189z3 <= 0
x134x56x3 - 1z134z56z3 <= 0
x134x22x2 - 2z134z22z2 <= 0
x134x0x2 <= 1
x134x0x3 <= 1
x150x189x1 - 1z150z189z1 <= 0
x150x56x1 - 1z150z56z1 <= 0
x150x0x1 <= 2
x171x85x3 - 1z171z85z3 <= 0
x171x135x3 - 2z171z135z3 <= 0
x171x149x1 - 2z171z149z1 <= 0
x171x189x1 - 1z171z189z1 <= 0
x171x189x3 - 1z171z189z3 <= 0
x171x56x1 - 1z171z56z1 <= 0
x171x56x3 - 1z171z56z3 <= 0
x171x0x1 <= 1
x171x0x3 <= 1
x177x85x3 - 1z177z85z3 <= 0
x177x135x3 - 2z177z135z3 <= 0
x177x189x1 - 1z177z189z1 <= 0
x177x189x3 - 1z177z189z3 <= 0
x177x56x1 - 1z177z56z1 <= 0
x177x56x3 - 1z177z56z3 <= 0
x177x0x1 <= 1
x177x0x3 <= 1
x197x189x3 - 1z197z189z3 <= 0
x197x56x3 - 1z197z56z3 <= 0
x197x0x3 <= 2
x210x189x1 - 1z210z189z1 <= 0
x210x189x3 - 1z210z189z3 <= 0
x210x56x1 - 1z210z56z1 <= 0
x210x56x3 - 1z210z56z3 <= 0
x210x0x1 <= 1
x210x0x3 <= 1
x226x22x2 - 2z226z22z2 <= 0
x226x0x2 <= 2
x243x85x3 - 1z243z85z3 <= 0
x243x135x3 - 2z243z135z3 <= 0
x243x189x1 - 1z243z189z1 <= 0
x243x189x3 - 1z243z189z3 <= 0
x243x56x1 - 1z243z56z1 <= 0
x243x56x3 - 1z243z56z3 <= 0
x243x0x1 <= 1
x243x0x3 <= 1
x90x46x2 - 2z90z46z2 <= 0
x90x189x3 - 1z90z189z3 <= 0
x90x56x3 - 1z90z56z3 <= 0
x90x22x2 - 2z90z22z2 <= 0
x90x0x2 <= 1
x90x0x3 <= 1
x51x46x2 - 2z51z46z2 <= 0
x51x22x2 - 2z51z22z2 <= 0
x51x0x2 <= 2
x264x149x1 - 2z264z149z1 <= 0
x264x46x2 - 2z264z46z2 <= 0
x264x189x1 - 1z264z189z1 <= 0
x264x56x1 - 1z264z56z1 <= 0
x264x22x2 - 2z264z22z2 <= 0
x264x0x1 <= 1
x264x0x2 <= 1
x64x46x2 - 2z64z46z2 <= 0
x64x189x3 - 1z64z189z3 <= 0
x64x56x3 - 1z64z56z3 <= 0
x64x22x2 - 2z64z22z2 <= 0
x64x0x2 <= 1
x64x0x3 <= 1
x85x135x3 - 2z85z135z3 <= 0
x85x46x2 - 2z85z46z2 <= 0
x85x22x2 - 2z85z22z2 <= 0
x85x0x2 <= 1
x85x0x3 <= 1
x135x0x3 <= 2
x149x0x1 <= 2
x46x22x2 - 2z46z22z2 <= 0
x46x0x2 <= 2
x189x56x1 - 1z189z56z1 <= 0
x189x56x3 - 1z189z56z3 <= 0
x189x0x1 <= 1
x189x0x3 <= 1
x56x0x1 <= 1
x56x0x3 <= 1
x22x0x2 <= 2

Bounds
s19 = 5.109309
s250 = 5.197449
s223 = 5.617462
s76 = 5.758942
s210 = 5.835781
s3 = 5.963557
s197 = 5.380000
s173 = 5.826343
s134 = 5.839681
s212 = 4.453300
s37 = 4.798980
s108 = 4.742590
s257 = 4.968060
s136 = 4.864900
s62 = 4.981660
6.000000 <= s21 <= 6.790000
6.000000 <= s32 <= 6.190000
6.000000 <= s58 <= 6.970000
6.000000 <= s66 <= 6.270000
6.000000 <= s75 <= 6.790000
6.000000 <= s93 <= 6.580000
6.000000 <= s118 <= 6.660000
6.000000 <= s134 <= 6.790000
6.000000 <= s150 <= 6.390000
6.000000 <= s171 <= 6.910000
6.000000 <= s177 <= 6.700000
6.000000 <= s197 <= 6.380000
6.000000 <= s210 <= 6.090000
6.000000 <= s226 <= 6.140000
6.000000 <= s243 <= 6.810000
6.020000 <= s90 <= 7.020000
6.060000 <= s51 <= 7.060000
6.090000 <= s264 <= 7.090000
6.110000 <= s64 <= 7.110000
6.120000 <= s85 <= 7.120000
6.180000 <= s135 <= 7.180000
6.190000 <= s149 <= 7.190000
6.330000 <= s46 <= 7.330000
6.340000 <= s189 <= 7.340000
6.370000 <= s56 <= 7.370000
6.410000 <= s22 <= 7.410000

General
x19x21x1 x19x58x1 x19x118x1 x19x171x1 x19x177x1 x19x243x1 x19x264x1 x19x149x1 x19x189x1 x19x56x1 
x250x21x1 x250x58x1 x250x75x2 x250x93x2 x250x118x1 x250x118x2 x250x134x2 x250x171x1 x250x177x1 x250x243x1 x250x90x2 x250x51x2 x250x264x1 x250x264x2 x250x64x2 x250x85x2 x250x149x1 x250x46x2 x250x189x1 x250x56x1 x250x22x2 
x223x85x2 x223x46x2 x223x189x1 x223x56x1 x223x22x2 
x76x90x2 x76x90x3 x76x51x2 x76x264x2 x76x64x2 x76x64x3 x76x46x2 x76x189x3 x76x56x3 x76x22x2 
x210x85x3 x210x135x3 x210x149x1 x210x189x1 x210x189x3 x210x56x1 x210x56x3 
x3x189x1 x3x189x3 x3x56x1 x3x56x3 
x197x21x3 x197x93x3 x197x134x3 x197x171x3 x197x177x3 x197x197x3 x197x243x3 x197x90x3 x197x64x3 x197x85x3 x197x135x3 x197x189x3 x197x56x3 
x173x90x3 x173x264x1 x173x64x3 x173x149x1 x173x189x1 x173x189x3 x173x56x1 x173x56x3 
x134x90x2 x134x90x3 x134x51x2 x134x264x2 x134x64x2 x134x64x3 x134x135x3 x134x46x2 x134x189x3 x134x56x3 x134x22x2 
x212x21x1 x212x58x1 x212x118x1 x212x150x1 x212x171x1 x212x177x1 x212x210x1 x212x243x1 x212x264x1 x212x149x1 x212x189x1 x212x56x1 
x37x32x2 x37x66x2 x37x75x2 x37x93x2 x37x118x2 x37x134x2 x37x90x2 x37x51x2 x37x264x2 x37x64x2 x37x85x2 x37x46x2 x37x22x2 
x108x21x1 x108x58x1 x108x118x1 x108x150x1 x108x171x1 x108x177x1 x108x243x1 x108x264x1 x108x149x1 x108x189x1 x108x56x1 
x257x75x2 x257x118x2 x257x134x2 x257x90x2 x257x51x2 x257x264x2 x257x64x2 x257x85x2 x257x46x2 x257x22x2 
x136x21x3 x136x75x2 x136x93x2 x136x93x3 x136x118x2 x136x134x2 x136x134x3 x136x171x3 x136x177x3 x136x243x3 x136x90x2 x136x90x3 x136x51x2 x136x264x2 x136x64x2 x136x64x3 x136x85x2 x136x85x3 x136x135x3 x136x46x2 x136x189x3 x136x56x3 x136x22x2 
x62x21x3 x62x75x2 x62x93x2 x62x93x3 x62x118x2 x62x134x2 x62x134x3 x62x171x3 x62x177x3 x62x243x3 x62x90x2 x62x90x3 x62x51x2 x62x264x2 x62x64x2 x62x64x3 x62x85x2 x62x85x3 x62x135x3 x62x46x2 x62x189x3 x62x56x3 x62x22x2 
x21x264x1 x21x64x3 x21x149x1 x21x189x1 x21x189x3 x21x56x1 x21x56x3 x21x0x1 x21x0x3 
x32x22x2 x32x0x2 
x58x264x1 x58x149x1 x58x189x1 x58x56x1 x58x0x1 
x66x22x2 x66x0x2 
x75x85x2 x75x46x2 x75x22x2 x75x0x2 
x93x85x2 x93x85x3 x93x135x3 x93x46x2 x93x189x3 x93x56x3 x93x22x2 x93x0x2 x93x0x3 
x118x56x1 x118x22x2 x118x0x1 x118x0x2 
x134x189x3 x134x56x3 x134x22x2 x134x0x2 x134x0x3 
x150x189x1 x150x56x1 x150x0x1 
x171x85x3 x171x135x3 x171x149x1 x171x189x1 x171x189x3 x171x56x1 x171x56x3 x171x0x1 x171x0x3 
x177x85x3 x177x135x3 x177x189x1 x177x189x3 x177x56x1 x177x56x3 x177x0x1 x177x0x3 
x197x189x3 x197x56x3 x197x0x3 
x210x189x1 x210x189x3 x210x56x1 x210x56x3 x210x0x1 x210x0x3 
x226x22x2 x226x0x2 
x243x85x3 x243x135x3 x243x189x1 x243x189x3 x243x56x1 x243x56x3 x243x0x1 x243x0x3 
x90x46x2 x90x189x3 x90x56x3 x90x22x2 x90x0x2 x90x0x3 
x51x46x2 x51x22x2 x51x0x2 
x264x149x1 x264x46x2 x264x189x1 x264x56x1 x264x22x2 x264x0x1 x264x0x2 
x64x46x2 x64x189x3 x64x56x3 x64x22x2 x64x0x2 x64x0x3 
x85x135x3 x85x46x2 x85x22x2 x85x0x2 x85x0x3 
x135x0x3 
x149x0x1 
x46x22x2 x46x0x2 
x189x56x1 x189x56x3 x189x0x1 x189x0x3 
x56x0x1 x56x0x3 
x22x0x2 

Binaries
y21 y32 y58 y66 y75 y93 y118 y134 y150 y171 y177 y197 y210 y226 y243 y90 y51 y264 y64 y85 y135 y149 y46 y189 y56 y22 
z19z21z1 z19z58z1 z19z118z1 z19z171z1 z19z177z1 z19z243z1 z19z264z1 z19z149z1 z19z189z1 z19z56z1 
z250z21z1 z250z58z1 z250z75z2 z250z93z2 z250z118z1 z250z118z2 z250z134z2 z250z171z1 z250z177z1 z250z243z1 z250z90z2 z250z51z2 z250z264z1 z250z264z2 z250z64z2 z250z85z2 z250z149z1 z250z46z2 z250z189z1 z250z56z1 z250z22z2 
z223z85z2 z223z46z2 z223z189z1 z223z56z1 z223z22z2 
z76z90z2 z76z90z3 z76z51z2 z76z264z2 z76z64z2 z76z64z3 z76z46z2 z76z189z3 z76z56z3 z76z22z2 
z210z85z3 z210z135z3 z210z149z1 z210z189z1 z210z189z3 z210z56z1 z210z56z3 
z3z189z1 z3z189z3 z3z56z1 z3z56z3 
z197z21z3 z197z93z3 z197z134z3 z197z171z3 z197z177z3 z197z197z3 z197z243z3 z197z90z3 z197z64z3 z197z85z3 z197z135z3 z197z189z3 z197z56z3 
z173z90z3 z173z264z1 z173z64z3 z173z149z1 z173z189z1 z173z189z3 z173z56z1 z173z56z3 
z134z90z2 z134z90z3 z134z51z2 z134z264z2 z134z64z2 z134z64z3 z134z135z3 z134z46z2 z134z189z3 z134z56z3 z134z22z2 
z212z21z1 z212z58z1 z212z118z1 z212z150z1 z212z171z1 z212z177z1 z212z210z1 z212z243z1 z212z264z1 z212z149z1 z212z189z1 z212z56z1 
z37z32z2 z37z66z2 z37z75z2 z37z93z2 z37z118z2 z37z134z2 z37z90z2 z37z51z2 z37z264z2 z37z64z2 z37z85z2 z37z46z2 z37z22z2 
z108z21z1 z108z58z1 z108z118z1 z108z150z1 z108z171z1 z108z177z1 z108z243z1 z108z264z1 z108z149z1 z108z189z1 z108z56z1 
z257z75z2 z257z118z2 z257z134z2 z257z90z2 z257z51z2 z257z264z2 z257z64z2 z257z85z2 z257z46z2 z257z22z2 
z136z21z3 z136z75z2 z136z93z2 z136z93z3 z136z118z2 z136z134z2 z136z134z3 z136z171z3 z136z177z3 z136z243z3 z136z90z2 z136z90z3 z136z51z2 z136z264z2 z136z64z2 z136z64z3 z136z85z2 z136z85z3 z136z135z3 z136z46z2 z136z189z3 z136z56z3 z136z22z2 
z62z21z3 z62z75z2 z62z93z2 z62z93z3 z62z118z2 z62z134z2 z62z134z3 z62z171z3 z62z177z3 z62z243z3 z62z90z2 z62z90z3 z62z51z2 z62z264z2 z62z64z2 z62z64z3 z62z85z2 z62z85z3 z62z135z3 z62z46z2 z62z189z3 z62z56z3 z62z22z2 
z21z264z1 z21z64z3 z21z149z1 z21z189z1 z21z189z3 z21z56z1 z21z56z3 
z32z22z2 
z58z264z1 z58z149z1 z58z189z1 z58z56z1 
z66z22z2 
z75z85z2 z75z46z2 z75z22z2 
z93z85z2 z93z85z3 z93z135z3 z93z46z2 z93z189z3 z93z56z3 z93z22z2 
z118z56z1 z118z22z2 
z134z189z3 z134z56z3 z134z22z2 
z150z189z1 z150z56z1 
z171z85z3 z171z135z3 z171z149z1 z171z189z1 z171z189z3 z171z56z1 z171z56z3 
z177z85z3 z177z135z3 z177z189z1 z177z189z3 z177z56z1 z177z56z3 
z197z189z3 z197z56z3 
z210z189z1 z210z189z3 z210z56z1 z210z56z3 
z226z22z2 
z243z85z3 z243z135z3 z243z189z1 z243z189z3 z243z56z1 z243z56z3 
z90z46z2 z90z189z3 z90z56z3 z90z22z2 
z51z46z2 z51z22z2 
z264z149z1 z264z46z2 z264z189z1 z264z56z1 z264z22z2 
z64z46z2 z64z189z3 z64z56z3 z64z22z2 
z85z135z3 z85z46z2 z85z22z2 


z46z22z2 
z189z56z1 z189z56z3 



End